p cnf 36 103
a 4 12 0
e 1 2 3 5 6 7 8 9 10 11 13 14 15 16 17 18 19 20 21 22 23 24 25 26 27 28 29 30 31 32 33 34 35 36 0
-2 1 -3 0
2 -1 -3 0
-2 -1 3 0
2 1 3 0
-5 -3 0
-5 4 0
3 -4 5 0
-6 -1 0
-6 -5 0
1 5 6 0
-2 5 -7 0
2 -5 -7 0
-2 -5 7 0
2 5 7 0
-8 -6 0
-8 -7 0
6 7 8 0
-11 -9 0
-11 -10 0
9 10 11 0
12 5 0
12 -1 0
-5 1 -12 0
-13 -12 0
-13 4 0
12 -4 13 0
-11 -13 -14 0
11 13 -14 0
-11 13 14 0
11 -13 14 0
15 5 0
15 5 0
-5 -15 0
16 14 0
16 15 0
-14 -15 -16 0
-18 4 0
-18 -17 0
-4 17 18 0
-17 -4 -19 0
17 4 -19 0
-17 4 19 0
17 -4 19 0
-2 19 -20 0
2 -19 -20 0
-2 -19 20 0
2 19 20 0
21 -18 0
21 20 0
18 -20 -21 0
-23 17 0
-23 -22 0
-17 22 23 0
24 12 0
24 4 0
-12 -4 -24 0
25 -24 0
25 4 0
24 -4 -25 0
-26 23 0
-26 25 0
-23 -25 26 0
-27 -21 0
-27 -26 0
21 26 27 0
-28 -3 0
-28 4 0
3 -4 28 0
30 -22 0
30 29 0
22 -29 -30 0
-9 29 -31 0
9 -29 -31 0
-9 -29 31 0
9 29 31 0
32 30 0
32 -31 0
-30 31 -32 0
-33 -28 0
-33 32 0
28 -32 33 0
27 -33 -34 0
-27 33 -34 0
27 33 34 0
-27 -33 34 0
-16 -34 -35 0
16 34 -35 0
-16 34 35 0
16 -34 35 0
-8 -35 -36 0
8 35 -36 0
-8 35 36 0
8 -35 36 0
15 -10 -3 -35 22 -29 -12 0
35 34 15 0
29 32 -31 -4 -1 -33 -17 -5 0
17 34 28 0
-31 -27 4 2 -17 -19 0
-3 27 26 -7 5 0
25 15 9 -33 -28 0
-29 28 2 0
22 -27 -20 29 -19 9 0
36 0
